wcsp 6 2 10 100000000
2 2 2 2 2 2
1 0 100000000 2
0 0.6931471805599453
1 0.6931471805599453
1 1 100000000 2
0 0.6931471805599453
1 0.6931471805599453
1 2 100000000 2
0 0.6931471805599453
1 0.6931471805599453
1 3 100000000 2
0 0.6931471805599453
1 0.6931471805599453
1 4 100000000 2
0 0.6931471805599453
1 0.6931471805599453
1 5 100000000 2
0 11.512925490232353
1 1.000004974770956e-05
5 0 1 2 3 4 100000000 32
0 0 0 0 0 100000000.0
0 0 0 0 1 3.044522437723423
0 0 0 1 0 100000000.0
0 0 0 1 1 3.044522437723423
0 0 1 0 0 3.044522437723423
0 0 1 0 1 3.044522437723423
0 0 1 1 0 100000000.0
0 0 1 1 1 3.044522437723423
0 1 0 0 0 100000000.0
0 1 0 0 1 3.044522437723423
0 1 0 1 0 100000000.0
0 1 0 1 1 3.044522437723423
0 1 1 0 0 3.044522437723423
0 1 1 0 1 3.044522437723423
0 1 1 1 0 100000000.0
0 1 1 1 1 3.044522437723423
1 0 0 0 0 3.044522437723423
1 0 0 0 1 3.044522437723423
1 0 0 1 0 100000000.0
1 0 0 1 1 3.044522437723423
1 0 1 0 0 3.044522437723423
1 0 1 0 1 3.044522437723423
1 0 1 1 0 100000000.0
1 0 1 1 1 3.044522437723423
1 1 0 0 0 100000000.0
1 1 0 0 1 3.044522437723423
1 1 0 1 0 100000000.0
1 1 0 1 1 3.044522437723423
1 1 1 0 0 3.044522437723423
1 1 1 0 1 3.044522437723423
1 1 1 1 0 100000000.0
1 1 1 1 1 3.044522437723423
2 5 0 100000000 4
0 0 1.0986122886681098
0 1 100000000.0
1 0 1.0986122886681098
1 1 1.0986122886681098
5 3 0 5 1 4 0 2
1 1 1 1 1 100000000
0 0 1 0 1 100000000
1 2 0 2
0 100000000
1 100000000